23 1
46 1
18 1
44 1
31 1
5 2
50 2
53 3
57 3
37 3
113 3
108 4
84 4
15 4
44 4
32 4
28 4
49 5
27 6
95 6
88 7
65 7
111 7
56 7
31 7
0 8
112 8
37 8
109 9
17 9
27 10
57 10
41 11
116 12
15 12
16 13
29 13
26 13
104 14
69 14
70 14
76 15
57 15
34 15
31 15
116 16
115 16
4 16
53 16
40 17
22 17
33 18
11 18
46 19
80 19
112 19
2 19
107 20
35 20
57 20
55 20
90 20
112 21
5 22
59 22
114 22
30 23
16 23
50 23
30 24
118 24
80 24
115 24
88 24
99 24
75 25
81 25
59 26
114 26
89 26
107 27
2 27
25 28
110 29
23 29
112 30
8 30
106 30
48 30
36 30
41 31
112 31
43 31
12 32
111 32
27 32
93 33
68 33
100 33
18 34
3 34
19 34
1 34
69 34
79 35
112 35
71 35
6 35
42 35
10 35
58 36
119 36
63 36
11 37
108 37
94 37
30 37
15 38
68 39
111 39
